171
0 66 151 168 156 125 166 35 111 51 
60 157 155 164 107 97 61 20 24 83 
160 117 110 56 165 30 64 45 28 145 
101 73 112 37 109 59 48 11 131 123 
76 43 21 27 14 120 10 9 75 32 
88 152 124 82 92 34 17 121 71 95 
77 130 18 23 143 69 94 52 29 154 
129 159 8 132 16 67 128 140 70 118 
85 47 127 7 26 100 86 114 50 57 
63 74 116 55 58 2 5 68 13 91 
136 96 40 138 54 38 137 147 46 39 
98 78 62 161 89 119 134 53 108 139 
79 15 167 90 113 72 105 115 104 146 
170 153 42 41 169 149 6 163 144 106 
80 25 142 150 93 19 84 102 162 12 
99 33 44 122 87 126 135 81 49 65 
148 141 158 3 4 22 36 1 31 103 
133 
